N = 6;
D = 4;
N1= 2;
N2 = 1;
N3 = 1;
MaxDT = 3;
MaxDL = 3;
MinDT = 2;
A = 0;
C = 1;
categ = [1, 1, 1, 1, 1, 1];
numcateg = [1, 1, 1, 1];
afin = [| 0, 1, 1, 1, 1, 1
        | 1, 0, 1, 1, 1, 1
        | 1, 1, 0, 1, 1, 1
        | 1, 1, 1, 0, 1, 1
        | 1, 1, 1, 1, 0, 1
        | 1, 1, 1, 1, 1, 0|];    
diasPedidos = [| 0, 1, 1, 1
               | 0, 0, 1, 1
               | 0, 0, 0, 1
               | 0, 0, 0, 0
               | 0, 0, 0, 0
               | 0, 0, 0, 0|];      
prefTurnos = [1, 0, 3, 2, 0, 0];